\ Model warehouse_inventory
\ LP format - for model browsing. Use MPS format to capture full model detail.
Minimize
  2521.11 INV1 + 1348.3 HAN1 + 22.93 SHO1 + 2221.99 DIS1 + 2521.11 INV2
   + 1348.3 HAN2 + 22.93 SHO2 + 2221.99 DIS2 + 2521.11 INV3 + 1348.3 HAN3
   + 22.93 SHO3 + 2221.99 DIS3 + 2521.11 INV4 + 1348.3 HAN4 + 22.93 SHO4
   + 2221.99 DIS4 + 2521.11 INV5 + 1348.3 HAN5 + 22.93 SHO5 + 2221.99 DIS5
   + 2521.11 INV6 + 1348.3 HAN6 + 22.93 SHO6 + 2221.99 DIS6
Subject To
 INV_INIT: INV1 = 79
 DEMAND1: 150 INV1 - 100 HAN1 + SHO1 >= 7950
 SHORTAGE_LIMIT1: - 20 INV1 + SHO1 <= 0
 DEMAND2: 150 INV2 - 100 HAN2 + SHO2 >= 12981
 SHORTAGE_LIMIT2: - 20 INV2 + SHO2 <= 0
 DEMAND3: 150 INV3 - 100 HAN3 + SHO3 >= 8160
 SHORTAGE_LIMIT3: - 20 INV3 + SHO3 <= 0
 DEMAND4: 150 INV4 - 100 HAN4 + SHO4 >= 9853
 SHORTAGE_LIMIT4: - 20 INV4 + SHO4 <= 0
 DEMAND5: 150 INV5 - 100 HAN5 + SHO5 >= 9555
 SHORTAGE_LIMIT5: - 20 INV5 + SHO5 <= 0
 DEMAND6: 150 INV6 - 100 HAN6 + SHO6 >= 9810
 SHORTAGE_LIMIT6: - 20 INV6 + SHO6 <= 0
 INV_TRANS2: 0.93 INV1 + HAN1 - DIS1 - INV2 = 0
 INV_TRANS3: 0.93 INV2 + HAN2 - DIS2 - INV3 = 0
 INV_TRANS4: 0.93 INV3 + HAN3 - DIS3 - INV4 = 0
 INV_TRANS5: 0.93 INV4 + HAN4 - DIS4 - INV5 = 0
 INV_TRANS6: 0.93 INV5 + HAN5 - DIS5 - INV6 = 0
 DISPOSAL_LIMIT1: - INV1 - HAN1 + DIS1 <= 0
 DISPOSAL_LIMIT2: - INV2 - HAN2 + DIS2 <= 0
 DISPOSAL_LIMIT3: - INV3 - HAN3 + DIS3 <= 0
 DISPOSAL_LIMIT4: - INV4 - HAN4 + DIS4 <= 0
 DISPOSAL_LIMIT5: - INV5 - HAN5 + DIS5 <= 0
 DISPOSAL_LIMIT6: - INV6 - HAN6 + DIS6 <= 0
Bounds
 HAN1 <= 22
 55 <= INV2 <= 72
 HAN2 <= 22
 55 <= INV3 <= 72
 HAN3 <= 22
 55 <= INV4 <= 72
 HAN4 <= 22
 55 <= INV5 <= 72
 HAN5 <= 22
 55 <= INV6 <= 72
 HAN6 <= 22
Generals
 INV1 HAN1 DIS1 INV2 HAN2 DIS2 INV3 HAN3 DIS3 INV4 HAN4 DIS4 INV5 HAN5 DIS5
 INV6 HAN6 DIS6
End
